% seed = 0

mint = 41;
% maxt = 209;

nActs = 20;
dur = [0,17,15,18,6,5,7,7,18,17,10,6,19,9,19,10,14,7,5,0];

nSkills = 2;
sreq = [| 0,0,
	| 2,2,
	| 0,2,
	| 2,2,
	| 2,2,
	| 2,2,
	| 2,2,
	| 2,2,
	| 0,2,
	| 2,0,
	| 3,0,
	| 0,2,
	| 3,2,
	| 0,2,
	| 2,2,
	| 0,2,
	| 2,0,
	| 2,0,
	| 2,2,
	| 0,0, |];

% SumOfsreq = 56;

nResources = 6;
mastery = [| true,false,
	| true,false,
	| false,true,
	| false,true,
	| true,true,
	| true,false, |];

nPrecs = 33;
pred = [1,1,1,1,1,1,1,1,1,2,2,2,3,3,4,5,6,6,7,7,8,9,9,10,11,12,13,14,15,16,17,18,19];
succ = [2,3,4,5,7,9,11,14,19,10,12,16,6,8,20,13,17,18,12,16,15,18,15,20,20,20,17,15,20,20,20,20,20];

nUnrels = 134;
unpred = [2,2,2,2,2,2,2,2,2,2,2,2,2,2,3,3,3,3,3,3,3,3,3,3,3,4,4,4,4,4,4,4,4,4,4,4,4,4,4,4,5,5,5,5,5,5,5,5,5,5,5,5,6,6,6,6,6,6,6,6,6,6,6,7,7,7,7,7,7,7,7,7,7,8,8,8,8,8,8,8,8,8,8,9,9,9,9,9,9,9,9,10,10,10,10,10,10,10,10,10,11,11,11,11,11,11,11,11,12,12,12,12,12,12,12,13,13,13,13,13,14,14,14,14,15,15,15,15,16,16,16,17,17,18];
unsucc = [3,4,5,6,7,8,9,11,13,14,15,17,18,19,4,5,7,9,10,11,12,13,14,16,19,5,6,7,8,9,10,11,12,13,14,15,16,17,18,19,6,7,8,9,10,11,12,14,15,16,18,19,7,8,9,10,11,12,13,14,15,16,19,8,9,10,11,13,14,15,17,18,19,9,10,11,12,13,14,16,17,18,19,10,11,12,13,14,16,17,19,11,12,13,14,15,16,17,18,19,12,13,14,15,16,17,18,19,13,14,15,16,17,18,19,14,15,16,18,19,16,17,18,19,16,17,18,19,17,18,19,18,19,19];

USEFUL_RES = [{},
	{1,2,3,4,5,6},
	{3,4,5},
	{1,2,3,4,5,6},
	{1,2,3,4,5,6},
	{1,2,3,4,5,6},
	{1,2,3,4,5,6},
	{1,2,3,4,5,6},
	{3,4,5},
	{1,2,5,6},
	{1,2,5,6},
	{3,4,5},
	{1,2,3,4,5,6},
	{3,4,5},
	{1,2,3,4,5,6},
	{3,4,5},
	{1,2,5,6},
	{1,2,5,6},
	{1,2,3,4,5,6},
	{}];

POTENTIAL_ACT = [{2,4,5,6,7,8,10,11,13,15,17,18,19},
	{2,4,5,6,7,8,10,11,13,15,17,18,19},
	{2,3,4,5,6,7,8,9,12,13,14,15,16,19},
	{2,3,4,5,6,7,8,9,12,13,14,15,16,19},
	{2,3,4,5,6,7,8,9,10,11,12,13,14,15,16,17,18,19},
	{2,4,5,6,7,8,10,11,13,15,17,18,19}];
